50
360 1400 2880 2160 720 420 1260 3240 560 1120 3240 980 2160 1800 1400 2160 1400 1260 2160 2160 720 3240 140 420 1800 3600 1800 2520 560 560 3600 360 1120 1080 720 140 1260 1120 360 1400 700 980 1080 1800 560 1440 360 2880 1080 3600 
214 930 1712 1284 428 279 837 1926 372 744 1926 651 1284 1070 930 1284 930 837 1284 1284 428 1926 93 279 1070 2140 1070 1498 372 372 2140 214 744 642 428 93 837 744 214 930 465 651 642 1070 372 856 214 1712 642 2140 
36554
